25 50
1 2 1
1 6 3
2 3 5
2 7 5
3 4 3
3 8 3
4 5 3
4 9 1
5 10 4
6 7 1
6 11 3
7 8 4
7 12 5
8 9 2
8 13 4
9 10 3
9 14 2
10 15 2
11 12 5
11 16 5
12 13 1
12 17 1
13 14 1
13 18 2
14 15 3
14 19 4
15 20 2
16 17 2
16 21 2
17 18 3
17 22 3
18 19 5
18 23 1
19 20 2
19 24 4
20 25 5
21 22 1
22 23 1
23 24 2
24 25 4
1 21 1
2 22 3
3 23 1
4 24 2
5 25 2
1 5 3
6 10 5
11 15 2
16 20 5
21 25 4
